ssat_solver_solve2
#level: 3
Abc_NtkNodeNum(s->pNtk): 141  , BDD limit: 10240
Build BDD success
level 2: 15 element
Exist
level 1: 2 element
Random
level 0: 9 element
Exist
c ssat solving in ABC
#var: 26
s SATISFIABLE
  > Upper bound = 5.000000e-01
  > Lower bound = 5.000000e-01
FINISHED CPU 0.00 MEM 0 MAXMEM -1 STALE 0 MAXMEM_RSS -1
real 0.11
user 0.07
sys 0.02
